(set-info :smt-lib-version 2.6)
(set-logic QF_ALIA)
(set-info :notes "Adapted for Array Sum evaluation.
Base file: qlock.induction.23.smt2")
(set-info :source |
Unbounded version of the queue lock algorithm.
|)
(set-info :category "industrial")
(declare-fun x_0 () (Array Int Int))
(declare-fun x_1 () Int)
(declare-fun x_2 () Int)
(declare-fun x_3 () (Array Int Int))
(declare-fun x_4 () (Array Int Int))
(declare-fun x_5 () (Array Int Int))
(declare-fun x_6 () (Array Int Int))
(declare-fun x_7 () (Array Int Int))
(declare-fun x_8 () (Array Int Int))
(declare-fun x_9 () (Array Int Int))
(declare-fun x_10 () (Array Int Int))
(declare-fun x_11 () (Array Int Int))
(declare-fun x_12 () (Array Int Int))
(declare-fun x_13 () (Array Int Int))
(declare-fun x_14 () (Array Int Int))
(declare-fun x_15 () (Array Int Int))
(declare-fun x_16 () (Array Int Int))
(declare-fun x_17 () (Array Int Int))
(declare-fun x_18 () (Array Int Int))
(declare-fun x_19 () (Array Int Int))
(declare-fun x_20 () (Array Int Int))
(declare-fun x_21 () (Array Int Int))
(declare-fun x_22 () (Array Int Int))
(declare-fun x_23 () (Array Int Int))
(declare-fun x_24 () (Array Int Int))
(declare-fun x_25 () (Array Int Int))
(declare-fun x_26 () Int)
(declare-fun x_27 () Int)
(declare-fun x_28 () (Array Int Int))
(declare-fun x_29 () Int)
(declare-fun x_30 () Bool)
(declare-fun x_31 () Bool)
(declare-fun x_32 () Int)
(declare-fun x_33 () Int)
(declare-fun x_34 () Int)
(declare-fun x_35 () Int)
(declare-fun x_36 () Int)
(declare-fun x_37 () Int)
(declare-fun x_38 () Int)
(declare-fun x_39 () Int)
(declare-fun x_40 () Int)
(declare-fun x_41 () Int)
(declare-fun x_42 () Int)
(declare-fun x_43 () Int)
(declare-fun x_44 () (Array Int Int))
(declare-fun x_45 () Int)
(declare-fun x_46 () Bool)
(declare-fun x_47 () Int)
(declare-fun x_48 () Int)
(declare-fun x_49 () Int)
(declare-fun x_50 () Int)
(declare-fun x_51 () Int)
(declare-fun x_52 () Int)
(declare-fun x_53 () Int)
(declare-fun x_54 () Int)
(declare-fun x_55 () Int)
(declare-fun x_56 () Int)
(declare-fun x_57 () (Array Int Int))
(declare-fun x_58 () Int)
(declare-fun x_59 () Bool)
(declare-fun x_60 () Int)
(declare-fun x_61 () Int)
(declare-fun x_62 () Int)
(declare-fun x_63 () Int)
(declare-fun x_64 () Int)
(declare-fun x_65 () Int)
(declare-fun x_66 () Int)
(declare-fun x_67 () Int)
(declare-fun x_68 () Int)
(declare-fun x_69 () Int)
(declare-fun x_70 () (Array Int Int))
(declare-fun x_71 () Int)
(declare-fun x_72 () Bool)
(declare-fun x_73 () Int)
(declare-fun x_74 () Int)
(declare-fun x_75 () Int)
(declare-fun x_76 () Int)
(declare-fun x_77 () Int)
(declare-fun x_78 () Int)
(declare-fun x_79 () Int)
(declare-fun x_80 () Int)
(declare-fun x_81 () Int)
(declare-fun x_82 () Int)
(declare-fun x_83 () (Array Int Int))
(declare-fun x_84 () Int)
(declare-fun x_85 () Bool)
(declare-fun x_86 () Int)
(declare-fun x_87 () Int)
(declare-fun x_88 () Int)
(declare-fun x_89 () Int)
(declare-fun x_90 () Int)
(declare-fun x_91 () Int)
(declare-fun x_92 () Int)
(declare-fun x_93 () Int)
(declare-fun x_94 () Int)
(declare-fun x_95 () Int)
(declare-fun x_96 () (Array Int Int))
(declare-fun x_97 () Int)
(declare-fun x_98 () Bool)
(declare-fun x_99 () Int)
(declare-fun x_100 () Int)
(declare-fun x_101 () Int)
(declare-fun x_102 () Int)
(declare-fun x_103 () Int)
(declare-fun x_104 () Int)
(declare-fun x_105 () Int)
(declare-fun x_106 () Int)
(declare-fun x_107 () Int)
(declare-fun x_108 () Int)
(declare-fun x_109 () (Array Int Int))
(declare-fun x_110 () Int)
(declare-fun x_111 () Bool)
(declare-fun x_112 () Int)
(declare-fun x_113 () Int)
(declare-fun x_114 () Int)
(declare-fun x_115 () Int)
(declare-fun x_116 () Int)
(declare-fun x_117 () Int)
(declare-fun x_118 () Int)
(declare-fun x_119 () Int)
(declare-fun x_120 () Int)
(declare-fun x_121 () Int)
(declare-fun x_122 () (Array Int Int))
(declare-fun x_123 () Int)
(declare-fun x_124 () Bool)
(declare-fun x_125 () Int)
(declare-fun x_126 () Int)
(declare-fun x_127 () Int)
(declare-fun x_128 () Int)
(declare-fun x_129 () Int)
(declare-fun x_130 () Int)
(declare-fun x_131 () Int)
(declare-fun x_132 () Int)
(declare-fun x_133 () Int)
(declare-fun x_134 () Int)
(declare-fun x_135 () (Array Int Int))
(declare-fun x_136 () Int)
(declare-fun x_137 () Bool)
(declare-fun x_138 () Int)
(declare-fun x_139 () Int)
(declare-fun x_140 () Int)
(declare-fun x_141 () Int)
(declare-fun x_142 () Int)
(declare-fun x_143 () Int)
(declare-fun x_144 () Int)
(declare-fun x_145 () Int)
(declare-fun x_146 () Int)
(declare-fun x_147 () Int)
(declare-fun x_148 () (Array Int Int))
(declare-fun x_149 () Int)
(declare-fun x_150 () Bool)
(declare-fun x_151 () Int)
(declare-fun x_152 () Int)
(declare-fun x_153 () Int)
(declare-fun x_154 () Int)
(declare-fun x_155 () Int)
(declare-fun x_156 () Int)
(declare-fun x_157 () Int)
(declare-fun x_158 () Int)
(declare-fun x_159 () Int)
(declare-fun x_160 () Int)
(declare-fun x_161 () (Array Int Int))
(declare-fun x_162 () Int)
(declare-fun x_163 () Bool)
(declare-fun x_164 () Int)
(declare-fun x_165 () Int)
(declare-fun x_166 () Int)
(declare-fun x_167 () Int)
(declare-fun x_168 () Int)
(declare-fun x_169 () Int)
(declare-fun x_170 () Int)
(declare-fun x_171 () Int)
(declare-fun x_172 () Int)
(declare-fun x_173 () Int)
(declare-fun x_174 () (Array Int Int))
(declare-fun x_175 () Int)
(declare-fun x_176 () Bool)
(declare-fun x_177 () Int)
(declare-fun x_178 () Int)
(declare-fun x_179 () Int)
(declare-fun x_180 () Int)
(declare-fun x_181 () Int)
(declare-fun x_182 () Int)
(declare-fun x_183 () Int)
(declare-fun x_184 () Int)
(declare-fun x_185 () Int)
(declare-fun x_186 () Int)
(declare-fun x_187 () (Array Int Int))
(declare-fun x_188 () Int)
(declare-fun x_189 () Bool)
(declare-fun x_190 () Int)
(declare-fun x_191 () Int)
(declare-fun x_192 () Int)
(declare-fun x_193 () Int)
(declare-fun x_194 () Int)
(declare-fun x_195 () Int)
(declare-fun x_196 () Int)
(declare-fun x_197 () Int)
(declare-fun x_198 () Int)
(declare-fun x_199 () Int)
(declare-fun x_200 () (Array Int Int))
(declare-fun x_201 () Int)
(declare-fun x_202 () Bool)
(declare-fun x_203 () Int)
(declare-fun x_204 () Int)
(declare-fun x_205 () Int)
(declare-fun x_206 () Int)
(declare-fun x_207 () Int)
(declare-fun x_208 () Int)
(declare-fun x_209 () Int)
(declare-fun x_210 () Int)
(declare-fun x_211 () Int)
(declare-fun x_212 () Int)
(declare-fun x_213 () (Array Int Int))
(declare-fun x_214 () Int)
(declare-fun x_215 () Bool)
(declare-fun x_216 () Int)
(declare-fun x_217 () Int)
(declare-fun x_218 () Int)
(declare-fun x_219 () Int)
(declare-fun x_220 () Int)
(declare-fun x_221 () Int)
(declare-fun x_222 () Int)
(declare-fun x_223 () Int)
(declare-fun x_224 () Int)
(declare-fun x_225 () Int)
(declare-fun x_226 () (Array Int Int))
(declare-fun x_227 () Int)
(declare-fun x_228 () Bool)
(declare-fun x_229 () Int)
(declare-fun x_230 () Int)
(declare-fun x_231 () Int)
(declare-fun x_232 () Int)
(declare-fun x_233 () Int)
(declare-fun x_234 () Int)
(declare-fun x_235 () Int)
(declare-fun x_236 () Int)
(declare-fun x_237 () Int)
(declare-fun x_238 () Int)
(declare-fun x_239 () (Array Int Int))
(declare-fun x_240 () Int)
(declare-fun x_241 () Bool)
(declare-fun x_242 () Int)
(declare-fun x_243 () Int)
(declare-fun x_244 () Int)
(declare-fun x_245 () Int)
(declare-fun x_246 () Int)
(declare-fun x_247 () Int)
(declare-fun x_248 () Int)
(declare-fun x_249 () Int)
(declare-fun x_250 () Int)
(declare-fun x_251 () Int)
(declare-fun x_252 () (Array Int Int))
(declare-fun x_253 () Int)
(declare-fun x_254 () Bool)
(declare-fun x_255 () Int)
(declare-fun x_256 () Int)
(declare-fun x_257 () Int)
(declare-fun x_258 () Int)
(declare-fun x_259 () Int)
(declare-fun x_260 () Int)
(declare-fun x_261 () Int)
(declare-fun x_262 () Int)
(declare-fun x_263 () Int)
(declare-fun x_264 () Int)
(declare-fun x_265 () (Array Int Int))
(declare-fun x_266 () Int)
(declare-fun x_267 () Bool)
(declare-fun x_268 () Int)
(declare-fun x_269 () Int)
(declare-fun x_270 () Int)
(declare-fun x_271 () Int)
(declare-fun x_272 () Int)
(declare-fun x_273 () Int)
(declare-fun x_274 () Int)
(declare-fun x_275 () Int)
(declare-fun x_276 () Int)
(declare-fun x_277 () Int)
(declare-fun x_278 () (Array Int Int))
(declare-fun x_279 () Int)
(declare-fun x_280 () Bool)
(declare-fun x_281 () Int)
(declare-fun x_282 () Int)
(declare-fun x_283 () Int)
(declare-fun x_284 () Int)
(declare-fun x_285 () Int)
(declare-fun x_286 () Int)
(declare-fun x_287 () Int)
(declare-fun x_288 () Int)
(declare-fun x_289 () Int)
(declare-fun x_290 () Int)
(declare-fun x_291 () (Array Int Int))
(declare-fun x_292 () Int)
(declare-fun x_293 () Bool)
(declare-fun x_294 () Int)
(declare-fun x_295 () Int)
(declare-fun x_296 () Int)
(declare-fun x_297 () Int)
(declare-fun x_298 () Int)
(declare-fun x_299 () Int)
(declare-fun x_300 () Int)
(declare-fun x_301 () Int)
(declare-fun x_302 () Int)
(declare-fun x_303 () Int)
(declare-fun x_304 () (Array Int Int))
(declare-fun x_305 () Int)
(declare-fun x_306 () Bool)
(declare-fun x_307 () Int)
(declare-fun x_308 () Int)
(declare-fun x_309 () Int)
(declare-fun x_310 () Int)
(declare-fun x_311 () Int)
(declare-fun x_312 () Int)
(declare-fun x_313 () Int)
(declare-fun x_314 () Int)
(declare-fun x_315 () Int)
(declare-fun x_316 () Int)
(declare-fun x_317 () (Array Int Int))
(declare-fun x_318 () Int)
(declare-fun x_319 () Bool)
(declare-fun x_320 () Int)
(declare-fun x_321 () Int)
(declare-fun x_322 () Int)
(declare-fun x_323 () Int)
(declare-fun x_324 () Int)
(declare-fun x_325 () (Array Int Int))
(declare-fun x_326 () Int)
(declare-fun x_327 () Int)
(declare-fun x_328 () Int)
(declare-fun x_329 () Int)
(declare-fun x_330 () Int)
(declare-fun x_331 () Int)
(declare-fun x_332 () Int)
(declare-fun x_333 () Int)
(declare-fun x_334 () Int)
(declare-fun x_335 () Int)
(declare-fun x_336 () Int)
(declare-fun x_337 () Int)
(declare-fun x_338 () Int)
(declare-fun x_339 () Int)
(declare-fun x_340 () Int)
(declare-fun x_341 () Int)
(declare-fun x_342 () Int)
(declare-fun x_343 () Int)
(declare-fun x_344 () Int)
(declare-fun x_345 () Int)
(declare-fun x_346 () Int)
(declare-fun x_347 () Int)
(declare-fun x_348 () Int)
(declare-fun x_349 () Int)
(declare-fun x_350 () Int)
(declare-fun x_351 () Int)
(declare-fun x_352 () Int)
(declare-fun x_353 () Int)
(declare-fun x_354 () Int)
(declare-fun x_355 () Int)
(declare-fun x_356 () Int)
(declare-fun x_357 () Int)
(declare-fun x_358 () Int)
(declare-fun x_359 () Int)
(declare-fun x_360 () Int)
(declare-fun x_361 () Int)
(declare-fun x_362 () Int)
(declare-fun x_363 () Int)
(declare-fun x_364 () Int)
(declare-fun x_365 () Int)
(declare-fun x_366 () Int)
(declare-fun x_367 () Int)
(declare-fun x_368 () Int)
(declare-fun x_369 () Int)
(declare-fun x_370 () Int)
(declare-fun x_371 () Int)
(declare-fun x_372 () Int)
(declare-fun x_373 () Int)
(declare-fun x_374 () Int)
(declare-fun x_375 () Int)
(declare-fun x_376 () Int)
(declare-fun x_377 () Int)
(declare-fun x_378 () Int)
(declare-fun x_379 () Int)
(declare-fun x_380 () Int)
(declare-fun x_381 () Int)
(declare-fun x_382 () Int)
(declare-fun x_383 () Int)
(declare-fun x_384 () Int)
(declare-fun x_385 () Int)
(declare-fun x_386 () Int)
(declare-fun x_387 () Int)
(declare-fun x_388 () Int)
(declare-fun x_389 () Int)
(declare-fun x_390 () Int)
(declare-fun x_391 () Int)
(declare-fun x_392 () Int)
(declare-fun x_393 () Int)
(declare-fun x_394 () Int)
(declare-fun x_395 () Int)
(declare-fun x_396 () Int)
(declare-fun x_397 () Int)
(declare-fun x_398 () Int)
(declare-fun x_399 () Int)
(declare-fun x_400 () Int)
(declare-fun x_401 () Int)
(declare-fun x_402 () Int)
(declare-fun x_403 () Int)
(declare-fun x_404 () Int)
(declare-fun x_405 () Int)
(declare-fun x_406 () Int)
(declare-fun x_407 () Int)
(declare-fun x_408 () Int)
(declare-fun x_409 () Int)
(declare-fun x_410 () Int)
(declare-fun x_411 () Int)
(declare-fun x_412 () Int)
(declare-fun x_413 () Int)
(declare-fun x_414 () Int)
(declare-fun x_415 () Int)
(declare-fun x_416 () Int)
(declare-fun x_417 () Int)
(declare-fun x_418 () Int)
(declare-fun x_419 () Int)
(declare-fun x_420 () Int)
(declare-fun x_421 () Int)
(declare-fun x_422 () Int)
(declare-fun x_423 () Int)
(declare-fun x_424 () Int)
(declare-fun x_425 () Int)
(declare-fun x_426 () Int)
(declare-fun x_427 () Int)
(declare-fun x_428 () Int)
(declare-fun x_429 () Int)
(declare-fun x_430 () Int)
(declare-fun x_431 () Int)
(declare-fun x_432 () Int)
(declare-fun x_433 () Int)
(declare-fun x_434 () Int)
(declare-fun x_435 () Int)
(declare-fun x_436 () Int)
(declare-fun x_437 () Int)
(declare-fun x_438 () Int)
(declare-fun x_439 () Int)
(declare-fun x_440 () Int)
(declare-fun x_441 () Int)
(declare-fun x_442 () Int)
(declare-fun x_443 () Int)
(declare-fun x_444 () Int)
(declare-fun x_445 () Int)
(declare-fun x_446 () Int)
(declare-fun x_447 () Int)
(declare-fun x_448 () Int)
(declare-fun x_449 () Int)
(declare-fun x_450 () Int)
(declare-fun x_451 () Int)
(declare-fun x_452 () Int)
(declare-fun x_453 () Int)
(declare-fun x_454 () Int)
(declare-fun x_455 () Int)
(declare-fun x_456 () Int)
(declare-fun x_457 () Int)
(declare-fun x_458 () Int)
(declare-fun x_459 () Int)
(declare-fun x_460 () Int)
(declare-fun x_461 () Int)
(declare-fun x_462 () Int)
(declare-fun x_463 () Int)
(declare-fun x_464 () Int)
(declare-fun x_465 () Int)
(declare-fun x_466 () Int)
(declare-fun x_467 () Int)
(declare-fun x_468 () Int)
(declare-fun x_469 () Int)
(assert (let ((?v_113 (= x_28 x_25)) (?v_110 (= x_29 x_26)) (?v_111 (= x_30 x_31)) (?v_114 (= x_32 x_33)) (?v_112 (not (<= x_33 x_26))) (?v_108 (= x_44 x_28)) (?v_105 (= x_45 x_29)) (?v_106 (= x_46 x_30)) (?v_109 (= x_47 x_32)) (?v_107 (not (<= x_32 x_29))) (?v_103 (= x_57 x_44)) (?v_100 (= x_58 x_45)) (?v_101 (= x_59 x_46)) (?v_104 (= x_60 x_47)) (?v_102 (not (<= x_47 x_45))) (?v_98 (= x_70 x_57)) (?v_95 (= x_71 x_58)) (?v_96 (= x_72 x_59)) (?v_99 (= x_73 x_60)) (?v_97 (not (<= x_60 x_58))) (?v_93 (= x_83 x_70)) (?v_90 (= x_84 x_71)) (?v_91 (= x_85 x_72)) (?v_94 (= x_86 x_73)) (?v_92 (not (<= x_73 x_71))) (?v_88 (= x_96 x_83)) (?v_85 (= x_97 x_84)) (?v_86 (= x_98 x_85)) (?v_89 (= x_99 x_86)) (?v_87 (not (<= x_86 x_84))) (?v_83 (= x_109 x_96)) (?v_80 (= x_110 x_97)) (?v_81 (= x_111 x_98)) (?v_84 (= x_112 x_99)) (?v_82 (not (<= x_99 x_97))) (?v_78 (= x_122 x_109)) (?v_75 (= x_123 x_110)) (?v_76 (= x_124 x_111)) (?v_79 (= x_125 x_112)) (?v_77 (not (<= x_112 x_110))) (?v_73 (= x_135 x_122)) (?v_70 (= x_136 x_123)) (?v_71 (= x_137 x_124)) (?v_74 (= x_138 x_125)) (?v_72 (not (<= x_125 x_123))) (?v_68 (= x_148 x_135)) (?v_65 (= x_149 x_136)) (?v_66 (= x_150 x_137)) (?v_69 (= x_151 x_138)) (?v_67 (not (<= x_138 x_136))) (?v_63 (= x_161 x_148)) (?v_60 (= x_162 x_149)) (?v_61 (= x_163 x_150)) (?v_64 (= x_164 x_151)) (?v_62 (not (<= x_151 x_149))) (?v_58 (= x_174 x_161)) (?v_55 (= x_175 x_162)) (?v_56 (= x_176 x_163)) (?v_59 (= x_177 x_164)) (?v_57 (not (<= x_164 x_162))) (?v_53 (= x_187 x_174)) (?v_50 (= x_188 x_175)) (?v_51 (= x_189 x_176)) (?v_54 (= x_190 x_177)) (?v_52 (not (<= x_177 x_175))) (?v_48 (= x_200 x_187)) (?v_45 (= x_201 x_188)) (?v_46 (= x_202 x_189)) (?v_49 (= x_203 x_190)) (?v_47 (not (<= x_190 x_188))) (?v_43 (= x_213 x_200)) (?v_40 (= x_214 x_201)) (?v_41 (= x_215 x_202)) (?v_44 (= x_216 x_203)) (?v_42 (not (<= x_203 x_201))) (?v_38 (= x_226 x_213)) (?v_35 (= x_227 x_214)) (?v_36 (= x_228 x_215)) (?v_39 (= x_229 x_216)) (?v_37 (not (<= x_216 x_214))) (?v_33 (= x_239 x_226)) (?v_30 (= x_240 x_227)) (?v_31 (= x_241 x_228)) (?v_34 (= x_242 x_229)) (?v_32 (not (<= x_229 x_227))) (?v_28 (= x_252 x_239)) (?v_25 (= x_253 x_240)) (?v_26 (= x_254 x_241)) (?v_29 (= x_255 x_242)) (?v_27 (not (<= x_242 x_240))) (?v_23 (= x_265 x_252)) (?v_20 (= x_266 x_253)) (?v_21 (= x_267 x_254)) (?v_24 (= x_268 x_255)) (?v_22 (not (<= x_255 x_253))) (?v_18 (= x_278 x_265)) (?v_15 (= x_279 x_266)) (?v_16 (= x_280 x_267)) (?v_19 (= x_281 x_268)) (?v_17 (not (<= x_268 x_266))) (?v_13 (= x_291 x_278)) (?v_10 (= x_292 x_279)) (?v_11 (= x_293 x_280)) (?v_14 (= x_294 x_281)) (?v_12 (not (<= x_281 x_279))) (?v_8 (= x_304 x_291)) (?v_5 (= x_305 x_292)) (?v_6 (= x_306 x_293)) (?v_9 (= x_307 x_294)) (?v_7 (not (<= x_294 x_292))) (?v_3 (= x_317 x_304)) (?v_0 (= x_318 x_305)) (?v_1 (= x_319 x_306)) (?v_4 (= x_320 x_307)) (?v_2 (not (<= x_307 x_305)))) (and (and (and (and (and (and (and (and (and (and (and (and (and (and (and (and (and (and (and (and (and (and (and (and (and (and (and (and (and (and (and (and (and (and (and (and (and (and (and (and (and (and (and (and (and (and (and (and (and (and (and (and (and (and (and (and (and (and (and (and (and (and (and (and (and (and (and (and (and (and (and (and (and (and (and (and (and (and (and (and (and (and (and (and (and (and (and (and (and (and (and (and (and (and (and (and (and (and (and (and (and (and (and (and (and (and (and (and (and (and (and (and (and (and (and (and (and (and (and (and (and (and (and (and (and (and (and (and (and (and (and (and (and (and (and (and (and (and (and (and (and (and (and (and (and (and (and (and (and (and (and (and (and (and (and (and (and (and (and (and (and (and (and (and (and (and (and (and (and (and (and (and (and (and (and (and (and (and (and (and (and (and (and (and (and (and (and (and (and (and (and (and (and (and (and (and (and (and (and (and (and (and (and (and (and (and (and (and (and (and (and (and (and (and (and (and (and (and (and (and (and (and (and (and (and (and (and (and (and (and (and (and (and (and (not (= x_2 x_1)) (= x_330 (select x_24 x_1))) (= x_331 (select x_24 x_2))) (or (not (= x_330 3)) (not (= x_331 3)))) (= x_332 (select x_23 x_1))) (= x_333 (select x_23 x_2))) (or (not (= x_332 3)) (not (= x_333 3)))) (= x_334 (select x_22 x_1))) (= x_335 (select x_22 x_2))) (or (not (= x_334 3)) (not (= x_335 3)))) (= x_336 (select x_21 x_1))) (= x_337 (select x_21 x_2))) (or (not (= x_336 3)) (not (= x_337 3)))) (= x_338 (select x_20 x_1))) (= x_339 (select x_20 x_2))) (or (not (= x_338 3)) (not (= x_339 3)))) (= x_340 (select x_19 x_1))) (= x_341 (select x_19 x_2))) (or (not (= x_340 3)) (not (= x_341 3)))) (= x_342 (select x_18 x_1))) (= x_343 (select x_18 x_2))) (or (not (= x_342 3)) (not (= x_343 3)))) (= x_344 (select x_17 x_1))) (= x_345 (select x_17 x_2))) (or (not (= x_344 3)) (not (= x_345 3)))) (= x_346 (select x_16 x_1))) (= x_347 (select x_16 x_2))) (or (not (= x_346 3)) (not (= x_347 3)))) (= x_348 (select x_15 x_1))) (= x_349 (select x_15 x_2))) (or (not (= x_348 3)) (not (= x_349 3)))) (= x_350 (select x_14 x_1))) (= x_351 (select x_14 x_2))) (or (not (= x_350 3)) (not (= x_351 3)))) (= x_352 (select x_13 x_1))) (= x_353 (select x_13 x_2))) (or (not (= x_352 3)) (not (= x_353 3)))) (= x_354 (select x_12 x_1))) (= x_355 (select x_12 x_2))) (or (not (= x_354 3)) (not (= x_355 3)))) (= x_356 (select x_11 x_1))) (= x_357 (select x_11 x_2))) (or (not (= x_356 3)) (not (= x_357 3)))) (= x_358 (select x_10 x_1))) (= x_359 (select x_10 x_2))) (or (not (= x_358 3)) (not (= x_359 3)))) (= x_360 (select x_9 x_1))) (= x_361 (select x_9 x_2))) (or (not (= x_360 3)) (not (= x_361 3)))) (= x_362 (select x_8 x_1))) (= x_363 (select x_8 x_2))) (or (not (= x_362 3)) (not (= x_363 3)))) (= x_364 (select x_7 x_1))) (= x_365 (select x_7 x_2))) (or (not (= x_364 3)) (not (= x_365 3)))) (= x_366 (select x_6 x_1))) (= x_367 (select x_6 x_2))) (or (not (= x_366 3)) (not (= x_367 3)))) (= x_368 (select x_5 x_1))) (= x_369 (select x_5 x_2))) (or (not (= x_368 3)) (not (= x_369 3)))) (= x_370 (select x_4 x_1))) (= x_371 (select x_4 x_2))) (or (not (= x_370 3)) (not (= x_371 3)))) (= x_372 (select x_3 x_1))) (= x_373 (select x_3 x_2))) (or (not (= x_372 3)) (not (= x_373 3)))) (= x_374 (select x_0 x_1))) (= x_375 (select x_0 x_2))) (or (not (= x_374 3)) (not (= x_375 3)))) (= x_376 (select x_25 x_26))) (= x_27 x_376)) (= x_377 (select x_28 x_29))) (= x_43 x_377)) (= x_378 (select x_44 x_45))) (= x_56 x_378)) (= x_379 (select x_57 x_58))) (= x_69 x_379)) (= x_380 (select x_70 x_71))) (= x_82 x_380)) (= x_381 (select x_83 x_84))) (= x_95 x_381)) (= x_382 (select x_96 x_97))) (= x_108 x_382)) (= x_383 (select x_109 x_110))) (= x_121 x_383)) (= x_384 (select x_122 x_123))) (= x_134 x_384)) (= x_385 (select x_135 x_136))) (= x_147 x_385)) (= x_386 (select x_148 x_149))) (= x_160 x_386)) (= x_387 (select x_161 x_162))) (= x_173 x_387)) (= x_388 (select x_174 x_175))) (= x_186 x_388)) (= x_389 (select x_187 x_188))) (= x_199 x_389)) (= x_390 (select x_200 x_201))) (= x_212 x_390)) (= x_391 (select x_213 x_214))) (= x_225 x_391)) (= x_392 (select x_226 x_227))) (= x_238 x_392)) (= x_393 (select x_239 x_240))) (= x_251 x_393)) (= x_394 (select x_252 x_253))) (= x_264 x_394)) (= x_395 (select x_265 x_266))) (= x_277 x_395)) (= x_396 (select x_278 x_279))) (= x_290 x_396)) (= x_397 (select x_291 x_292))) (= x_303 x_397)) (= x_398 (select x_304 x_305))) (= x_316 x_398)) (= x_321 (+ x_308 1))) (= x_399 (select x_24 x_323))) (= x_400 (select x_24 x_326))) (= x_401 (select x_24 x_328))) (or (or (or (and (and (and (and (and (and (and (= x_322 0) (= x_320 (+ x_307 1))) ?v_0) ?v_1) (= x_324 x_323)) (= x_399 1)) (= x_325 (store x_24 x_323 2))) (= x_317 (store x_304 x_307 x_323))) (and (and (and (and (and (and (and (and (and (= x_322 1) ?v_2) ?v_0) ?v_1) ?v_3) ?v_4) (= x_327 x_326)) (= x_400 2)) (= x_316 x_326)) (= x_325 (store x_24 x_326 3)))) (and (and (and (and (and (and (and (and (and (= x_322 2) ?v_2) (= x_318 (+ x_305 1))) ?v_1) ?v_3) ?v_4) (= x_329 x_328)) (= x_401 3)) (or (not (<= x_308 12)) (= x_316 x_328))) (= x_325 (store x_24 x_328 1)))) (and (and (and (and (and (= x_322 3) ?v_3) ?v_0) ?v_1) (= x_325 x_24)) ?v_4))) (= x_308 (+ x_295 1))) (= x_402 (select x_23 x_310))) (= x_403 (select x_23 x_312))) (= x_404 (select x_23 x_314))) (or (or (or (and (and (and (and (and (and (and (= x_309 0) (= x_307 (+ x_294 1))) ?v_5) ?v_6) (= x_311 x_310)) (= x_402 1)) (= x_24 (store x_23 x_310 2))) (= x_304 (store x_291 x_294 x_310))) (and (and (and (and (and (and (and (and (and (= x_309 1) ?v_7) ?v_5) ?v_6) ?v_8) ?v_9) (= x_313 x_312)) (= x_403 2)) (= x_303 x_312)) (= x_24 (store x_23 x_312 3)))) (and (and (and (and (and (and (and (and (and (= x_309 2) ?v_7) (= x_305 (+ x_292 1))) ?v_6) ?v_8) ?v_9) (= x_315 x_314)) (= x_404 3)) (or (not (<= x_295 12)) (= x_303 x_314))) (= x_24 (store x_23 x_314 1)))) (and (and (and (and (and (= x_309 3) ?v_8) ?v_5) ?v_6) (= x_24 x_23)) ?v_9))) (= x_295 (+ x_282 1))) (= x_405 (select x_22 x_297))) (= x_406 (select x_22 x_299))) (= x_407 (select x_22 x_301))) (or (or (or (and (and (and (and (and (and (and (= x_296 0) (= x_294 (+ x_281 1))) ?v_10) ?v_11) (= x_298 x_297)) (= x_405 1)) (= x_23 (store x_22 x_297 2))) (= x_291 (store x_278 x_281 x_297))) (and (and (and (and (and (and (and (and (and (= x_296 1) ?v_12) ?v_10) ?v_11) ?v_13) ?v_14) (= x_300 x_299)) (= x_406 2)) (= x_290 x_299)) (= x_23 (store x_22 x_299 3)))) (and (and (and (and (and (and (and (and (and (= x_296 2) ?v_12) (= x_292 (+ x_279 1))) ?v_11) ?v_13) ?v_14) (= x_302 x_301)) (= x_407 3)) (or (not (<= x_282 12)) (= x_290 x_301))) (= x_23 (store x_22 x_301 1)))) (and (and (and (and (and (= x_296 3) ?v_13) ?v_10) ?v_11) (= x_23 x_22)) ?v_14))) (= x_282 (+ x_269 1))) (= x_408 (select x_21 x_284))) (= x_409 (select x_21 x_286))) (= x_410 (select x_21 x_288))) (or (or (or (and (and (and (and (and (and (and (= x_283 0) (= x_281 (+ x_268 1))) ?v_15) ?v_16) (= x_285 x_284)) (= x_408 1)) (= x_22 (store x_21 x_284 2))) (= x_278 (store x_265 x_268 x_284))) (and (and (and (and (and (and (and (and (and (= x_283 1) ?v_17) ?v_15) ?v_16) ?v_18) ?v_19) (= x_287 x_286)) (= x_409 2)) (= x_277 x_286)) (= x_22 (store x_21 x_286 3)))) (and (and (and (and (and (and (and (and (and (= x_283 2) ?v_17) (= x_279 (+ x_266 1))) ?v_16) ?v_18) ?v_19) (= x_289 x_288)) (= x_410 3)) (or (not (<= x_269 12)) (= x_277 x_288))) (= x_22 (store x_21 x_288 1)))) (and (and (and (and (and (= x_283 3) ?v_18) ?v_15) ?v_16) (= x_22 x_21)) ?v_19))) (= x_269 (+ x_256 1))) (= x_411 (select x_20 x_271))) (= x_412 (select x_20 x_273))) (= x_413 (select x_20 x_275))) (or (or (or (and (and (and (and (and (and (and (= x_270 0) (= x_268 (+ x_255 1))) ?v_20) ?v_21) (= x_272 x_271)) (= x_411 1)) (= x_21 (store x_20 x_271 2))) (= x_265 (store x_252 x_255 x_271))) (and (and (and (and (and (and (and (and (and (= x_270 1) ?v_22) ?v_20) ?v_21) ?v_23) ?v_24) (= x_274 x_273)) (= x_412 2)) (= x_264 x_273)) (= x_21 (store x_20 x_273 3)))) (and (and (and (and (and (and (and (and (and (= x_270 2) ?v_22) (= x_266 (+ x_253 1))) ?v_21) ?v_23) ?v_24) (= x_276 x_275)) (= x_413 3)) (or (not (<= x_256 12)) (= x_264 x_275))) (= x_21 (store x_20 x_275 1)))) (and (and (and (and (and (= x_270 3) ?v_23) ?v_20) ?v_21) (= x_21 x_20)) ?v_24))) (= x_256 (+ x_243 1))) (= x_414 (select x_19 x_258))) (= x_415 (select x_19 x_260))) (= x_416 (select x_19 x_262))) (or (or (or (and (and (and (and (and (and (and (= x_257 0) (= x_255 (+ x_242 1))) ?v_25) ?v_26) (= x_259 x_258)) (= x_414 1)) (= x_20 (store x_19 x_258 2))) (= x_252 (store x_239 x_242 x_258))) (and (and (and (and (and (and (and (and (and (= x_257 1) ?v_27) ?v_25) ?v_26) ?v_28) ?v_29) (= x_261 x_260)) (= x_415 2)) (= x_251 x_260)) (= x_20 (store x_19 x_260 3)))) (and (and (and (and (and (and (and (and (and (= x_257 2) ?v_27) (= x_253 (+ x_240 1))) ?v_26) ?v_28) ?v_29) (= x_263 x_262)) (= x_416 3)) (or (not (<= x_243 12)) (= x_251 x_262))) (= x_20 (store x_19 x_262 1)))) (and (and (and (and (and (= x_257 3) ?v_28) ?v_25) ?v_26) (= x_20 x_19)) ?v_29))) (= x_243 (+ x_230 1))) (= x_417 (select x_18 x_245))) (= x_418 (select x_18 x_247))) (= x_419 (select x_18 x_249))) (or (or (or (and (and (and (and (and (and (and (= x_244 0) (= x_242 (+ x_229 1))) ?v_30) ?v_31) (= x_246 x_245)) (= x_417 1)) (= x_19 (store x_18 x_245 2))) (= x_239 (store x_226 x_229 x_245))) (and (and (and (and (and (and (and (and (and (= x_244 1) ?v_32) ?v_30) ?v_31) ?v_33) ?v_34) (= x_248 x_247)) (= x_418 2)) (= x_238 x_247)) (= x_19 (store x_18 x_247 3)))) (and (and (and (and (and (and (and (and (and (= x_244 2) ?v_32) (= x_240 (+ x_227 1))) ?v_31) ?v_33) ?v_34) (= x_250 x_249)) (= x_419 3)) (or (not (<= x_230 12)) (= x_238 x_249))) (= x_19 (store x_18 x_249 1)))) (and (and (and (and (and (= x_244 3) ?v_33) ?v_30) ?v_31) (= x_19 x_18)) ?v_34))) (= x_230 (+ x_217 1))) (= x_420 (select x_17 x_232))) (= x_421 (select x_17 x_234))) (= x_422 (select x_17 x_236))) (or (or (or (and (and (and (and (and (and (and (= x_231 0) (= x_229 (+ x_216 1))) ?v_35) ?v_36) (= x_233 x_232)) (= x_420 1)) (= x_18 (store x_17 x_232 2))) (= x_226 (store x_213 x_216 x_232))) (and (and (and (and (and (and (and (and (and (= x_231 1) ?v_37) ?v_35) ?v_36) ?v_38) ?v_39) (= x_235 x_234)) (= x_421 2)) (= x_225 x_234)) (= x_18 (store x_17 x_234 3)))) (and (and (and (and (and (and (and (and (and (= x_231 2) ?v_37) (= x_227 (+ x_214 1))) ?v_36) ?v_38) ?v_39) (= x_237 x_236)) (= x_422 3)) (or (not (<= x_217 12)) (= x_225 x_236))) (= x_18 (store x_17 x_236 1)))) (and (and (and (and (and (= x_231 3) ?v_38) ?v_35) ?v_36) (= x_18 x_17)) ?v_39))) (= x_217 (+ x_204 1))) (= x_423 (select x_16 x_219))) (= x_424 (select x_16 x_221))) (= x_425 (select x_16 x_223))) (or (or (or (and (and (and (and (and (and (and (= x_218 0) (= x_216 (+ x_203 1))) ?v_40) ?v_41) (= x_220 x_219)) (= x_423 1)) (= x_17 (store x_16 x_219 2))) (= x_213 (store x_200 x_203 x_219))) (and (and (and (and (and (and (and (and (and (= x_218 1) ?v_42) ?v_40) ?v_41) ?v_43) ?v_44) (= x_222 x_221)) (= x_424 2)) (= x_212 x_221)) (= x_17 (store x_16 x_221 3)))) (and (and (and (and (and (and (and (and (and (= x_218 2) ?v_42) (= x_214 (+ x_201 1))) ?v_41) ?v_43) ?v_44) (= x_224 x_223)) (= x_425 3)) (or (not (<= x_204 12)) (= x_212 x_223))) (= x_17 (store x_16 x_223 1)))) (and (and (and (and (and (= x_218 3) ?v_43) ?v_40) ?v_41) (= x_17 x_16)) ?v_44))) (= x_204 (+ x_191 1))) (= x_426 (select x_15 x_206))) (= x_427 (select x_15 x_208))) (= x_428 (select x_15 x_210))) (or (or (or (and (and (and (and (and (and (and (= x_205 0) (= x_203 (+ x_190 1))) ?v_45) ?v_46) (= x_207 x_206)) (= x_426 1)) (= x_16 (store x_15 x_206 2))) (= x_200 (store x_187 x_190 x_206))) (and (and (and (and (and (and (and (and (and (= x_205 1) ?v_47) ?v_45) ?v_46) ?v_48) ?v_49) (= x_209 x_208)) (= x_427 2)) (= x_199 x_208)) (= x_16 (store x_15 x_208 3)))) (and (and (and (and (and (and (and (and (and (= x_205 2) ?v_47) (= x_201 (+ x_188 1))) ?v_46) ?v_48) ?v_49) (= x_211 x_210)) (= x_428 3)) (or (not (<= x_191 12)) (= x_199 x_210))) (= x_16 (store x_15 x_210 1)))) (and (and (and (and (and (= x_205 3) ?v_48) ?v_45) ?v_46) (= x_16 x_15)) ?v_49))) (= x_191 (+ x_178 1))) (= x_429 (select x_14 x_193))) (= x_430 (select x_14 x_195))) (= x_431 (select x_14 x_197))) (or (or (or (and (and (and (and (and (and (and (= x_192 0) (= x_190 (+ x_177 1))) ?v_50) ?v_51) (= x_194 x_193)) (= x_429 1)) (= x_15 (store x_14 x_193 2))) (= x_187 (store x_174 x_177 x_193))) (and (and (and (and (and (and (and (and (and (= x_192 1) ?v_52) ?v_50) ?v_51) ?v_53) ?v_54) (= x_196 x_195)) (= x_430 2)) (= x_186 x_195)) (= x_15 (store x_14 x_195 3)))) (and (and (and (and (and (and (and (and (and (= x_192 2) ?v_52) (= x_188 (+ x_175 1))) ?v_51) ?v_53) ?v_54) (= x_198 x_197)) (= x_431 3)) (or (not (<= x_178 12)) (= x_186 x_197))) (= x_15 (store x_14 x_197 1)))) (and (and (and (and (and (= x_192 3) ?v_53) ?v_50) ?v_51) (= x_15 x_14)) ?v_54))) (= x_178 (+ x_165 1))) (= x_432 (select x_13 x_180))) (= x_433 (select x_13 x_182))) (= x_434 (select x_13 x_184))) (or (or (or (and (and (and (and (and (and (and (= x_179 0) (= x_177 (+ x_164 1))) ?v_55) ?v_56) (= x_181 x_180)) (= x_432 1)) (= x_14 (store x_13 x_180 2))) (= x_174 (store x_161 x_164 x_180))) (and (and (and (and (and (and (and (and (and (= x_179 1) ?v_57) ?v_55) ?v_56) ?v_58) ?v_59) (= x_183 x_182)) (= x_433 2)) (= x_173 x_182)) (= x_14 (store x_13 x_182 3)))) (and (and (and (and (and (and (and (and (and (= x_179 2) ?v_57) (= x_175 (+ x_162 1))) ?v_56) ?v_58) ?v_59) (= x_185 x_184)) (= x_434 3)) (or (not (<= x_165 12)) (= x_173 x_184))) (= x_14 (store x_13 x_184 1)))) (and (and (and (and (and (= x_179 3) ?v_58) ?v_55) ?v_56) (= x_14 x_13)) ?v_59))) (= x_165 (+ x_152 1))) (= x_435 (select x_12 x_167))) (= x_436 (select x_12 x_169))) (= x_437 (select x_12 x_171))) (or (or (or (and (and (and (and (and (and (and (= x_166 0) (= x_164 (+ x_151 1))) ?v_60) ?v_61) (= x_168 x_167)) (= x_435 1)) (= x_13 (store x_12 x_167 2))) (= x_161 (store x_148 x_151 x_167))) (and (and (and (and (and (and (and (and (and (= x_166 1) ?v_62) ?v_60) ?v_61) ?v_63) ?v_64) (= x_170 x_169)) (= x_436 2)) (= x_160 x_169)) (= x_13 (store x_12 x_169 3)))) (and (and (and (and (and (and (and (and (and (= x_166 2) ?v_62) (= x_162 (+ x_149 1))) ?v_61) ?v_63) ?v_64) (= x_172 x_171)) (= x_437 3)) (or (not (<= x_152 12)) (= x_160 x_171))) (= x_13 (store x_12 x_171 1)))) (and (and (and (and (and (= x_166 3) ?v_63) ?v_60) ?v_61) (= x_13 x_12)) ?v_64))) (= x_152 (+ x_139 1))) (= x_438 (select x_11 x_154))) (= x_439 (select x_11 x_156))) (= x_440 (select x_11 x_158))) (or (or (or (and (and (and (and (and (and (and (= x_153 0) (= x_151 (+ x_138 1))) ?v_65) ?v_66) (= x_155 x_154)) (= x_438 1)) (= x_12 (store x_11 x_154 2))) (= x_148 (store x_135 x_138 x_154))) (and (and (and (and (and (and (and (and (and (= x_153 1) ?v_67) ?v_65) ?v_66) ?v_68) ?v_69) (= x_157 x_156)) (= x_439 2)) (= x_147 x_156)) (= x_12 (store x_11 x_156 3)))) (and (and (and (and (and (and (and (and (and (= x_153 2) ?v_67) (= x_149 (+ x_136 1))) ?v_66) ?v_68) ?v_69) (= x_159 x_158)) (= x_440 3)) (or (not (<= x_139 12)) (= x_147 x_158))) (= x_12 (store x_11 x_158 1)))) (and (and (and (and (and (= x_153 3) ?v_68) ?v_65) ?v_66) (= x_12 x_11)) ?v_69))) (= x_139 (+ x_126 1))) (= x_441 (select x_10 x_141))) (= x_442 (select x_10 x_143))) (= x_443 (select x_10 x_145))) (or (or (or (and (and (and (and (and (and (and (= x_140 0) (= x_138 (+ x_125 1))) ?v_70) ?v_71) (= x_142 x_141)) (= x_441 1)) (= x_11 (store x_10 x_141 2))) (= x_135 (store x_122 x_125 x_141))) (and (and (and (and (and (and (and (and (and (= x_140 1) ?v_72) ?v_70) ?v_71) ?v_73) ?v_74) (= x_144 x_143)) (= x_442 2)) (= x_134 x_143)) (= x_11 (store x_10 x_143 3)))) (and (and (and (and (and (and (and (and (and (= x_140 2) ?v_72) (= x_136 (+ x_123 1))) ?v_71) ?v_73) ?v_74) (= x_146 x_145)) (= x_443 3)) (or (not (<= x_126 12)) (= x_134 x_145))) (= x_11 (store x_10 x_145 1)))) (and (and (and (and (and (= x_140 3) ?v_73) ?v_70) ?v_71) (= x_11 x_10)) ?v_74))) (= x_126 (+ x_113 1))) (= x_444 (select x_9 x_128))) (= x_445 (select x_9 x_130))) (= x_446 (select x_9 x_132))) (or (or (or (and (and (and (and (and (and (and (= x_127 0) (= x_125 (+ x_112 1))) ?v_75) ?v_76) (= x_129 x_128)) (= x_444 1)) (= x_10 (store x_9 x_128 2))) (= x_122 (store x_109 x_112 x_128))) (and (and (and (and (and (and (and (and (and (= x_127 1) ?v_77) ?v_75) ?v_76) ?v_78) ?v_79) (= x_131 x_130)) (= x_445 2)) (= x_121 x_130)) (= x_10 (store x_9 x_130 3)))) (and (and (and (and (and (and (and (and (and (= x_127 2) ?v_77) (= x_123 (+ x_110 1))) ?v_76) ?v_78) ?v_79) (= x_133 x_132)) (= x_446 3)) (or (not (<= x_113 12)) (= x_121 x_132))) (= x_10 (store x_9 x_132 1)))) (and (and (and (and (and (= x_127 3) ?v_78) ?v_75) ?v_76) (= x_10 x_9)) ?v_79))) (= x_113 (+ x_100 1))) (= x_447 (select x_8 x_115))) (= x_448 (select x_8 x_117))) (= x_449 (select x_8 x_119))) (or (or (or (and (and (and (and (and (and (and (= x_114 0) (= x_112 (+ x_99 1))) ?v_80) ?v_81) (= x_116 x_115)) (= x_447 1)) (= x_9 (store x_8 x_115 2))) (= x_109 (store x_96 x_99 x_115))) (and (and (and (and (and (and (and (and (and (= x_114 1) ?v_82) ?v_80) ?v_81) ?v_83) ?v_84) (= x_118 x_117)) (= x_448 2)) (= x_108 x_117)) (= x_9 (store x_8 x_117 3)))) (and (and (and (and (and (and (and (and (and (= x_114 2) ?v_82) (= x_110 (+ x_97 1))) ?v_81) ?v_83) ?v_84) (= x_120 x_119)) (= x_449 3)) (or (not (<= x_100 12)) (= x_108 x_119))) (= x_9 (store x_8 x_119 1)))) (and (and (and (and (and (= x_114 3) ?v_83) ?v_80) ?v_81) (= x_9 x_8)) ?v_84))) (= x_100 (+ x_87 1))) (= x_450 (select x_7 x_102))) (= x_451 (select x_7 x_104))) (= x_452 (select x_7 x_106))) (or (or (or (and (and (and (and (and (and (and (= x_101 0) (= x_99 (+ x_86 1))) ?v_85) ?v_86) (= x_103 x_102)) (= x_450 1)) (= x_8 (store x_7 x_102 2))) (= x_96 (store x_83 x_86 x_102))) (and (and (and (and (and (and (and (and (and (= x_101 1) ?v_87) ?v_85) ?v_86) ?v_88) ?v_89) (= x_105 x_104)) (= x_451 2)) (= x_95 x_104)) (= x_8 (store x_7 x_104 3)))) (and (and (and (and (and (and (and (and (and (= x_101 2) ?v_87) (= x_97 (+ x_84 1))) ?v_86) ?v_88) ?v_89) (= x_107 x_106)) (= x_452 3)) (or (not (<= x_87 12)) (= x_95 x_106))) (= x_8 (store x_7 x_106 1)))) (and (and (and (and (and (= x_101 3) ?v_88) ?v_85) ?v_86) (= x_8 x_7)) ?v_89))) (= x_87 (+ x_74 1))) (= x_453 (select x_6 x_89))) (= x_454 (select x_6 x_91))) (= x_455 (select x_6 x_93))) (or (or (or (and (and (and (and (and (and (and (= x_88 0) (= x_86 (+ x_73 1))) ?v_90) ?v_91) (= x_90 x_89)) (= x_453 1)) (= x_7 (store x_6 x_89 2))) (= x_83 (store x_70 x_73 x_89))) (and (and (and (and (and (and (and (and (and (= x_88 1) ?v_92) ?v_90) ?v_91) ?v_93) ?v_94) (= x_92 x_91)) (= x_454 2)) (= x_82 x_91)) (= x_7 (store x_6 x_91 3)))) (and (and (and (and (and (and (and (and (and (= x_88 2) ?v_92) (= x_84 (+ x_71 1))) ?v_91) ?v_93) ?v_94) (= x_94 x_93)) (= x_455 3)) (or (not (<= x_74 12)) (= x_82 x_93))) (= x_7 (store x_6 x_93 1)))) (and (and (and (and (and (= x_88 3) ?v_93) ?v_90) ?v_91) (= x_7 x_6)) ?v_94))) (= x_74 (+ x_61 1))) (= x_456 (select x_5 x_76))) (= x_457 (select x_5 x_78))) (= x_458 (select x_5 x_80))) (or (or (or (and (and (and (and (and (and (and (= x_75 0) (= x_73 (+ x_60 1))) ?v_95) ?v_96) (= x_77 x_76)) (= x_456 1)) (= x_6 (store x_5 x_76 2))) (= x_70 (store x_57 x_60 x_76))) (and (and (and (and (and (and (and (and (and (= x_75 1) ?v_97) ?v_95) ?v_96) ?v_98) ?v_99) (= x_79 x_78)) (= x_457 2)) (= x_69 x_78)) (= x_6 (store x_5 x_78 3)))) (and (and (and (and (and (and (and (and (and (= x_75 2) ?v_97) (= x_71 (+ x_58 1))) ?v_96) ?v_98) ?v_99) (= x_81 x_80)) (= x_458 3)) (or (not (<= x_61 12)) (= x_69 x_80))) (= x_6 (store x_5 x_80 1)))) (and (and (and (and (and (= x_75 3) ?v_98) ?v_95) ?v_96) (= x_6 x_5)) ?v_99))) (= x_61 (+ x_48 1))) (= x_459 (select x_4 x_63))) (= x_460 (select x_4 x_65))) (= x_461 (select x_4 x_67))) (or (or (or (and (and (and (and (and (and (and (= x_62 0) (= x_60 (+ x_47 1))) ?v_100) ?v_101) (= x_64 x_63)) (= x_459 1)) (= x_5 (store x_4 x_63 2))) (= x_57 (store x_44 x_47 x_63))) (and (and (and (and (and (and (and (and (and (= x_62 1) ?v_102) ?v_100) ?v_101) ?v_103) ?v_104) (= x_66 x_65)) (= x_460 2)) (= x_56 x_65)) (= x_5 (store x_4 x_65 3)))) (and (and (and (and (and (and (and (and (and (= x_62 2) ?v_102) (= x_58 (+ x_45 1))) ?v_101) ?v_103) ?v_104) (= x_68 x_67)) (= x_461 3)) (or (not (<= x_48 12)) (= x_56 x_67))) (= x_5 (store x_4 x_67 1)))) (and (and (and (and (and (= x_62 3) ?v_103) ?v_100) ?v_101) (= x_5 x_4)) ?v_104))) (= x_48 (+ x_34 1))) (= x_462 (select x_3 x_50))) (= x_463 (select x_3 x_52))) (= x_464 (select x_3 x_54))) (or (or (or (and (and (and (and (and (and (and (= x_49 0) (= x_47 (+ x_32 1))) ?v_105) ?v_106) (= x_51 x_50)) (= x_462 1)) (= x_4 (store x_3 x_50 2))) (= x_44 (store x_28 x_32 x_50))) (and (and (and (and (and (and (and (and (and (= x_49 1) ?v_107) ?v_105) ?v_106) ?v_108) ?v_109) (= x_53 x_52)) (= x_463 2)) (= x_43 x_52)) (= x_4 (store x_3 x_52 3)))) (and (and (and (and (and (and (and (and (and (= x_49 2) ?v_107) (= x_45 (+ x_29 1))) ?v_106) ?v_108) ?v_109) (= x_55 x_54)) (= x_464 3)) (or (not (<= x_34 12)) (= x_43 x_54))) (= x_4 (store x_3 x_54 1)))) (and (and (and (and (and (= x_49 3) ?v_108) ?v_105) ?v_106) (= x_4 x_3)) ?v_109))) (= x_34 (+ x_35 1))) (= x_465 (select x_0 x_37))) (= x_466 (select x_0 x_39))) (= x_467 (select x_0 x_41))) (or (or (or (and (and (and (and (and (and (and (= x_36 0) (= x_32 (+ x_33 1))) ?v_110) ?v_111) (= x_38 x_37)) (= x_465 1)) (= x_3 (store x_0 x_37 2))) (= x_28 (store x_25 x_33 x_37))) (and (and (and (and (and (and (and (and (and (= x_36 1) ?v_112) ?v_110) ?v_111) ?v_113) ?v_114) (= x_40 x_39)) (= x_466 2)) (= x_27 x_39)) (= x_3 (store x_0 x_39 3)))) (and (and (and (and (and (and (and (and (and (= x_36 2) ?v_112) (= x_29 (+ x_26 1))) ?v_111) ?v_113) ?v_114) (= x_42 x_41)) (= x_467 3)) (or (not (<= x_35 12)) (= x_27 x_41))) (= x_3 (store x_0 x_41 1)))) (and (and (and (and (and (= x_36 3) ?v_113) ?v_110) ?v_111) (= x_3 x_0)) ?v_114))) (= x_468 (select x_325 x_1))) (= x_468 3)) (= x_469 (select x_325 x_2))) (= x_469 3))))
; --- Injected Array Sum Constraint ---
(assert (sum x_25 (+ x_281 (+ x_322 x_246))))
(check-sat)
(exit)